c example DIMACS-CNF 
p cnf 8 21 
1 2 0 
-1 -2 0 
3 4 5 6 0 
-3 -4 0 
-3 -5 0 
-3 -6 0 
-4 -5 0 
-4 -6 0 
-5 -6 0 
7 8 0 
-7 -8 0 
-1 -3 0 
-1 -4 0 
-1 -6 0 
-2 -3 0 
-2 -5 0 
-7 -4 0 
-7 -6 0 
-8 -3 0 
-8 -4 0 
-8 -5 0 